\ Equation counts
\     Total        E        G        L        N        X        C        B
\         0        0        0        0        0        0        0        0
\ 
\ Variable counts
\                  x        b        i      s1s      s2s       sc       si
\     Total     cont   binary  integer     sos1     sos2    scont     sint
\       861        0      861        0        0        0        0        0
\ 
\ Nonzero counts
\     Total    const       NL      DLL
\       861        0      861        0
\ 
Maximize
 obj: 0 b2 + 0 b3 + 0 b4 + 0 b5 + 0 b6 + 0 b7 + 0 b8 + 0 b9 + 0 b10 + 0 b11 + 0 b12 + 0 b13 + 0 b14 + 0 b15 
  + 0 b16 + 0 b17 + 0 b18 + 0 b19 + 0 b20 + 0 b21 + 0 b22 + 0 b23 + 0 b24 + 0 b25 + 0 b26 + 0 b27 + 0 b28 
  + 0 b29 + 0 b30 + 0 b31 + 0 b32 + 0 b33 + 0 b34 + 0 b35 + 0 b36 + 0 b37 + 0 b38 + 0 b39 + 0 b40 + 0 b41 
  + 0 b42 + 0 b43 + 0 b44 + 0 b45 + 0 b46 + 0 b47 + 0 b48 + 0 b49 + 0 b50 + 0 b51 + 0 b52 + 0 b53 + 0 b54 
  + 0 b55 + 0 b56 + 0 b57 + 0 b58 + 0 b59 + 0 b60 + 0 b61 + 0 b62 + 0 b63 + 0 b64 + 0 b65 + 0 b66 + 0 b67 
  + 0 b68 + 0 b69 + 0 b70 + 0 b71 + 0 b72 + 0 b73 + 0 b74 + 0 b75 + 0 b76 + 0 b77 + 0 b78 + 0 b79 + 0 b80 
  + 0 b81 + 0 b82 + 0 b83 + 0 b84 + 0 b85 + 0 b86 + 0 b87 + 0 b88 + 0 b89 + 0 b90 + 0 b91 + 0 b92 + 0 b93 
  + 0 b94 + 0 b95 + 0 b96 + 0 b97 + 0 b98 + 0 b99 + 0 b100 + 0 b101 + 0 b102 + 0 b103 + 0 b104 + 0 b105 
  + 0 b106 + 0 b107 + 0 b108 + 0 b109 + 0 b110 + 0 b111 + 0 b112 + 0 b113 + 0 b114 + 0 b115 + 0 b116 
  + 0 b117 + 0 b118 + 0 b119 + 0 b120 + 0 b121 + 0 b122 + 0 b123 + 0 b124 + 0 b125 + 0 b126 + 0 b127 
  + 0 b128 + 0 b129 + 0 b130 + 0 b131 + 0 b132 + 0 b133 + 0 b134 + 0 b135 + 0 b136 + 0 b137 + 0 b138 
  + 0 b139 + 0 b140 + 0 b141 + 0 b142 + 0 b143 + 0 b144 + 0 b145 + 0 b146 + 0 b147 + 0 b148 + 0 b149 
  + 0 b150 + 0 b151 + 0 b152 + 0 b153 + 0 b154 + 0 b155 + 0 b156 + 0 b157 + 0 b158 + 0 b159 + 0 b160 
  + 0 b161 + 0 b162 + 0 b163 + 0 b164 + 0 b165 + 0 b166 + 0 b167 + 0 b168 + 0 b169 + 0 b170 + 0 b171 
  + 0 b172 + 0 b173 + 0 b174 + 0 b175 + 0 b176 + 0 b177 + 0 b178 + 0 b179 + 0 b180 + 0 b181 + 0 b182 
  + 0 b183 + 0 b184 + 0 b185 + 0 b186 + 0 b187 + 0 b188 + 0 b189 + 0 b190 + 0 b191 + 0 b192 + 0 b193 
  + 0 b194 + 0 b195 + 0 b196 + 0 b197 + 0 b198 + 0 b199 + 0 b200 + 0 b201 + 0 b202 + 0 b203 + 0 b204 
  + 0 b205 + 0 b206 + 0 b207 + 0 b208 + 0 b209 + 0 b210 + 0 b211 + 0 b212 + 0 b213 + 0 b214 + 0 b215 
  + 0 b216 + 0 b217 + 0 b218 + 0 b219 + 0 b220 + 0 b221 + 0 b222 + 0 b223 + 0 b224 + 0 b225 + 0 b226 
  + 0 b227 + 0 b228 + 0 b229 + 0 b230 + 0 b231 + 0 b232 + 0 b233 + 0 b234 + 0 b235 + 0 b236 + 0 b237 
  + 0 b238 + 0 b239 + 0 b240 + 0 b241 + 0 b242 + 0 b243 + 0 b244 + 0 b245 + 0 b246 + 0 b247 + 0 b248 
  + 0 b249 + 0 b250 + 0 b251 + 0 b252 + 0 b253 + 0 b254 + 0 b255 + 0 b256 + 0 b257 + 0 b258 + 0 b259 
  + 0 b260 + 0 b261 + 0 b262 + 0 b263 + 0 b264 + 0 b265 + 0 b266 + 0 b267 + 0 b268 + 0 b269 + 0 b270 
  + 0 b271 + 0 b272 + 0 b273 + 0 b274 + 0 b275 + 0 b276 + 0 b277 + 0 b278 + 0 b279 + 0 b280 + 0 b281 
  + 0 b282 + 0 b283 + 0 b284 + 0 b285 + 0 b286 + 0 b287 + 0 b288 + 0 b289 + 0 b290 + 0 b291 + 0 b292 
  + 0 b293 + 0 b294 + 0 b295 + 0 b296 + 0 b297 + 0 b298 + 0 b299 + 0 b300 + 0 b301 + 0 b302 + 0 b303 
  + 0 b304 + 0 b305 + 0 b306 + 0 b307 + 0 b308 + 0 b309 + 0 b310 + 0 b311 + 0 b312 + 0 b313 + 0 b314 
  + 0 b315 + 0 b316 + 0 b317 + 0 b318 + 0 b319 + 0 b320 + 0 b321 + 0 b322 + 0 b323 + 0 b324 + 0 b325 
  + 0 b326 + 0 b327 + 0 b328 + 0 b329 + 0 b330 + 0 b331 + 0 b332 + 0 b333 + 0 b334 + 0 b335 + 2 b336 
  + 2 b337 + 4 b338 + 2 b339 + 2 b340 + 2 b341 + 2 b342 + 2 b343 + 2 b344 + 2 b345 + 2 b346 + 2 b347 
  + 2 b348 + 2 b349 + 2 b350 + 2 b351 + 2 b352 + 2 b353 + 2 b354 + 2 b355 + 2 b356 + 2 b357 + 2 b358 
  + 2 b359 + 2 b360 + 2 b361 + 2 b362 + 2 b363 + 2 b364 + 2 b365 + 2 b366 + 2 b367 + 2 b368 + 2 b369 
  - 2 b370 + 4 b371 + 2 b372 + 4 b373 + 2 b374 + 2 b375 + 2 b376 + 2 b377 + 2 b378 - 2 b379 + 4 b380 
  + 2 b381 + 4 b382 + 2 b383 + 2 b384 + 2 b385 + 2 b386 + 2 b387 + 2 b388 + 2 b389 + 2 b390 - 2 b391 
  + 4 b392 + 2 b393 + 2 b394 + 2 b395 - 2 b396 + 4 b397 + 4 b398 + 4 b399 + 2 b400 - 2 b401 + 2 b402 
  + 2 b403 + 2 b404 + 2 b405 + 2 b406 + 2 b407 + 2 b408 + 4 b409 + 2 b410 - 2 b411 + 2 b412 + 4 b413 
  + 2 b414 + 4 b415 + 4 b416 + 4 b417 + 4 b418 + 2 b419 + 2 b420 + 2 b421 + 2 b422 + 2 b423 - 2 b424 
  + 2 b425 + 4 b426 + 2 b427 + 2 b428 + 2 b429 + 2 b430 + 4 b431 + 4 b432 + 4 b433 + 2 b434 + 4 b435 
  + 4 b436 + 2 b437 + 4 b438 + 2 b439 + 2 b440 + 2 b441 + 2 b442 + 2 b443 + 2 b444 + 2 b445 - 2 b446 
  + 4 b447 + 2 b448 + 2 b449 + 2 b450 + 2 b451 + 2 b452 + 4 b453 + 2 b454 + 2 b455 + 4 b456 + 4 b457 
  + 4 b458 + 2 b459 + 4 b460 + 2 b461 + 2 b462 + 4 b463 + 2 b464 + 2 b465 + 2 b466 + 2 b467 - 2 b468 
  + 4 b469 + 2 b470 - 2 b471 + 2 b472 + 4 b473 + 2 b474 + 2 b475 + 4 b476 + 2 b477 + 2 b478 + 4 b479 
  - 2 b480 + 4 b481 + 2 b482 + 4 b483 + 2 b484 + 2 b485 + 4 b486 + 2 b487 + 2 b488 + 2 b489 + 2 b490 
  + 2 b491 - 4 b492 + 4 b493 + 2 b494 + 2 b495 - 2 b496 + 4 b497 + 2 b498 + 4 b499 - 2 b500 + 4 b501 
  + 4 b502 + 4 b503 + 2 b504 + 2 b505 + 4 b506 + 2 b507 + 2 b508 + 2 b509 + 2 b510 + 2 b511 + 4 b512 
  - 4 b513 - 2 b514 + 2 b515 + 4 b516 + 4 b517 + 2 b518 + 2 b519 - 2 b520 - 2 b521 + 4 b522 + 2 b523 
  + 4 b524 + 4 b525 + 4 b526 - 2 b527 + 4 b528 + 2 b529 + 4 b530 + 4 b531 + 2 b532 + 2 b533 + 2 b534 
  + 4 b535 - 2 b536 - 2 b537 + 4 b538 + 2 b539 + 2 b540 + 2 b541 - 2 b542 + 4 b543 + 2 b544 + 2 b545 
  - 4 b546 - 2 b547 + 2 b548 + 4 b549 + 2 b550 + 2 b551 - 2 b552 + 2 b553 + 2 b554 + 4 b555 + 2 b556 
  + 2 b557 - 2 b558 - 2 b559 + 4 b560 + 2 b561 + 4 b562 + 2 b563 + 4 b564 - 2 b565 + 2 b566 + 4 b567 
  + 4 b568 + 2 b569 + 2 b570 + 2 b571 + 4 b572 + 4 b573 + 2 b574 - 2 b575 - 4 b576 + 4 b577 + 2 b578 
  + 2 b579 + 2 b580 - 2 b581 + 4 b582 + 2 b583 - 4 b584 - 2 b585 + 4 b586 + 2 b587 - 2 b588 + 2 b589 
  + 2 b590 - 2 b591 + 2 b592 + 2 b593 - 4 b594 - 2 b595 + 4 b596 + 4 b597 + 2 b598 + 4 b599 + 4 b600 
  - 2 b601 + 2 b602 + 4 b603 + 2 b604 - 2 b605 + 2 b606 + 4 b607 + 2 b608 + 2 b609 - 2 b610 + 4 b611 
  + 2 b612 - 2 b613 + 4 b614 + 2 b615 - 2 b616 + 4 b617 - 2 b618 + 2 b619 + 2 b620 - 2 b621 + 2 b622 
  + 2 b623 - 4 b624 - 2 b625 + 4 b626 + 4 b627 + 4 b628 + 4 b629 + 4 b630 + 4 b631 + 2 b632 + 4 b633 
  + 2 b634 - 2 b635 + 2 b636 + 2 b637 + 4 b638 + 2 b639 + 2 b640 + 2 b641 - 2 b642 + 4 b643 + 2 b644 
  + 4 b645 + 2 b646 + 4 b647 - 2 b648 + 2 b649 - 4 b650 + 4 b651 - 2 b652 + 2 b653 - 2 b654 - 2 b655 
  + 2 b656 - 2 b657 + 2 b658 + 2 b659 + 2 b660 + 2 b661 + 2 b662 - 2 b663 - 4 b664 + 2 b665 + 4 b666 
  + 4 b667 + 4 b668 + 4 b669 + 2 b670 + 4 b671 + 2 b672 + 4 b673 + 4 b674 + 2 b675 - 2 b676 + 2 b677 
  + 4 b678 + 2 b679 + 2 b680 - 2 b681 + 2 b682 + 2 b683 - 2 b684 - 2 b685 + 4 b686 - 2 b687 + 4 b688 
  - 2 b689 - 2 b690 + 2 b691 + 4 b692 - 4 b693 + 2 b694 + 2 b695 + 2 b696 + 2 b697 + 2 b698 - 2 b699 
  - 4 b700 + 2 b701 + 4 b702 + 4 b703 + 2 b704 + 4 b705 + 4 b706 + 4 b707 + 4 b708 + 2 b709 + 4 b710 
  + 2 b711 + 4 b712 + 4 b713 + 4 b714 + 2 b715 + 2 b716 + 2 b717 - 2 b718 + 4 b719 + 2 b720 + 2 b721 
  + 4 b722 + 4 b723 + 4 b724 - 2 b725 + 2 b726 + 2 b727 + 4 b728 - 2 b729 + 4 b730 + 2 b731 + 2 b732 
  - 2 b733 + 4 b734 - 2 b735 + 4 b736 - 2 b737 + 2 b738 + 2 b739 + 2 b740 - 2 b741 + 2 b742 - 2 b743 
  + 2 b744 + 4 b745 + 2 b746 + 2 b747 + 2 b748 + 4 b749 + 2 b750 + 4 b751 + 4 b752 + 2 b753 + 4 b754 
  + 4 b755 + 2 b756 + 2 b757 + 2 b758 - 2 b759 + 4 b760 + 2 b761 + 2 b762 + 2 b763 + 2 b764 - 2 b765 
  + 4 b766 + 4 b767 + 4 b768 + 2 b769 + 2 b770 + 2 b771 + 2 b772 - 2 b773 + 2 b774 + 4 b775 - 4 b776 
  + 2 b777 + 2 b778 - 2 b779 + 4 b780 - 2 b781 + 2 b782 + 4 b783 - 2 b784 + 4 b785 + 2 b786 + 2 b787 
  - 2 b788 + 2 b789 - 2 b790 + 2 b791 - 2 b792 + 4 b793 + 2 b794 + 2 b795 + 2 b796 + 4 b797 + 4 b798 
  + 4 b799 + 4 b800 + 4 b801 - 2 b802 + 4 b803 + 2 b804 + 2 b805 + 4 b806 + 2 b807 + 2 b808 - 2 b809 
  + 4 b810 - 2 b811 + 2 b812 + 2 b813 + 2 b814 + 2 b815 + 4 b816 - 2 b817 + 4 b818 + 2 b819 + 4 b820 
  + 4 b821 + 2 b822 + 2 b823 + 2 b824 + 2 b825 - 2 b826 + 2 b827 - 2 b828 + 4 b829 - 4 b830 + 2 b831 
  + 2 b832 - 2 b833 + 4 b834 - 2 b835 + 2 b836 + 4 b837 - 2 b838 + 4 b839 - 2 b840 + 2 b841 - 2 b842 
  + 2 b843 + 2 b844 - 2 b845 + 2 b846 - 4 b847 + 4 b848 + 2 b849 + 2 b850 + 2 b851 + 2 b852 + 4 b853 
  + 4 b854 + 4 b855 + 2 b856 - 2 b857 + 4 b858 + 2 b859 + 2 b860 + 4 b861 - 2 b862 + [ 4 b2 * b3 - 4 b2 * b128 
  - 4 b2 * b432 + 4 b2 * b454 + 4 b3 * b396 - 4 b3 * b430 - 4 b3 * b476 + 4 b4 * b5 - 4 b4 * b108 - 4 b4 * b448 
  + 4 b4 * b494 - 4 b5 * b413 + 4 b5 * b648 - 4 b5 * b733 + 4 b6 * b55 - 4 b6 * b400 + 4 b6 * b670 - 4 b6 * b707 
  - 4 b7 * b8 + 4 b7 * b133 - 4 b7 * b346 + 4 b7 * b537 - 4 b8 * b17 + 4 b8 * b103 + 4 b8 * b104 + 4 b9 * b10 
  - 4 b9 * b427 + 4 b9 * b470 - 4 b9 * b517 - 4 b10 * b392 + 4 b10 * b685 - 4 b10 * b779 + 4 b11 * b22 
  - 4 b11 * b336 - 4 b11 * b711 + 4 b11 * b802 + 4 b12 * b13 - 4 b12 * b408 - 4 b12 * b537 + 4 b12 * b576 
  - 4 b13 * b102 - 4 b13 * b186 + 4 b13 * b267 - 4 b14 * b15 + 4 b14 * b117 - 4 b14 * b350 + 4 b14 * b576 
  - 4 b15 * b25 + 4 b15 * b116 + 4 b15 * b118 - 4 b16 * b55 - 4 b16 * b337 + 4 b16 * b565 + 4 b16 * b859 
  + 4 b17 * b18 - 4 b17 * b390 + 4 b17 * b817 - 4 b18 * b91 - 4 b18 * b172 + 4 b18 * b276 - 4 b19 * b20 
  - 4 b19 * b179 + 4 b19 * b552 + 4 b19 * b840 + 4 b20 * b164 - 4 b20 * b344 + 4 b20 * b591 - 4 b21 * b338 
  - 4 b21 * b400 + 4 b21 * b601 + 4 b21 * b804 - 4 b22 * b338 + 4 b22 * b604 - 4 b22 * b674 - 4 b23 * b24 
  + 4 b23 * b443 - 4 b23 * b573 + 4 b23 * b811 + 4 b24 * b170 + 4 b24 * b171 - 4 b24 * b807 + 4 b25 * b26 
  - 4 b25 * b378 + 4 b25 * b765 - 4 b26 * b90 + 4 b26 * b286 - 4 b26 * b811 - 4 b27 * b119 + 4 b27 * b391 
  + 4 b27 * b490 - 4 b27 * b512 + 4 b28 * b29 - 4 b28 * b30 + 4 b28 * b153 - 4 b28 * b189 - 4 b29 * b73 
  + 4 b29 * b138 - 4 b29 * b353 + 4 b30 * b178 - 4 b30 * b348 + 4 b30 * b621 + 4 b31 * b205 + 4 b31 * b247 
  - 4 b31 * b801 - 4 b31 * b857 + 4 b32 * b33 - 4 b32 * b337 + 4 b32 * b569 - 4 b32 * b713 + 4 b33 * b857 
  - 4 b33 * b858 - 4 b33 * b861 + 4 b34 * b146 - 4 b34 * b172 + 4 b34 * b423 - 4 b34 * b463 - 4 b35 * b134 
  + 4 b35 * b379 + 4 b35 * b466 - 4 b35 * b543 + 4 b36 * b162 + 4 b36 * b424 - 4 b36 * b647 - 4 b36 * b730 
  + 4 b37 * b38 - 4 b37 * b39 + 4 b37 * b139 - 4 b37 * b695 - 4 b38 * b63 + 4 b38 * b125 - 4 b38 * b351 
  + 4 b39 * b188 - 4 b39 * b351 + 4 b39 * b657 + 4 b40 * b41 - 4 b40 * b88 + 4 b40 * b520 - 4 b40 * b697 
  - 4 b41 * b98 - 4 b41 * b139 + 4 b41 * b742 + 4 b42 * b43 - 4 b42 * b338 + 4 b42 * b532 - 4 b42 * b755 
  + 4 b43 * b802 - 4 b43 * b803 - 4 b43 * b806 + 4 b44 * b132 - 4 b44 * b186 + 4 b44 * b407 - 4 b44 * b486 
  + 4 b45 * b679 - 4 b45 * b723 + 4 b45 * b764 - 4 b45 * b816 + 4 b46 * b47 - 4 b46 * b147 + 4 b46 * b370 
  - 4 b46 * b582 + 4 b47 * b279 - 4 b47 * b445 - 4 b47 * b682 - 4 b48 * b49 + 4 b48 * b149 + 4 b48 * b446 
  - 4 b48 * b548 + 4 b49 * b253 - 4 b49 * b391 + 4 b49 * b826 + 4 b50 * b471 - 4 b50 * b473 + 4 b50 * b655 
  - 4 b50 * b782 - 4 b51 * b52 + 4 b51 * b126 + 4 b51 * b655 - 4 b51 * b659 - 4 b52 * b353 + 4 b52 * b654 
  + 4 b52 * b693 + 4 b53 * b54 - 4 b53 * b475 + 4 b53 * b558 - 4 b53 * b661 - 4 b54 * b109 - 4 b54 * b126 
  + 4 b54 * b789 - 4 b55 * b205 + 4 b55 * b224 + 4 b56 * b115 - 4 b56 * b196 + 4 b56 * b389 - 4 b56 * b506 
  - 4 b57 * b58 + 4 b57 * b59 + 4 b57 * b82 - 4 b57 * b410 - 4 b58 * b409 + 4 b58 * b507 + 4 b58 * b680 
  - 4 b59 * b638 - 4 b59 * b724 + 4 b59 * b765 + 4 b60 * b61 + 4 b60 * b71 - 4 b60 * b467 - 4 b60 * b611 
  - 4 b61 * b82 - 4 b61 * b268 + 4 b61 * b489 + 4 b62 * b136 - 4 b62 * b412 + 4 b62 * b468 - 4 b62 * b515 
  + 4 b63 * b64 - 4 b63 * b65 + 4 b63 * b97 - 4 b64 * b372 - 4 b64 * b517 + 4 b64 * b653 + 4 b65 * b254 
  + 4 b65 * b280 - 4 b65 * b393 - 4 b66 * b452 + 4 b66 * b594 - 4 b66 * b622 + 4 b66 * b842 + 4 b67 * b191 
  - 4 b67 * b558 + 4 b67 * b594 - 4 b67 * b596 + 4 b68 * b69 + 4 b68 * b102 - 4 b68 * b535 - 4 b68 * b636 
  + 4 b69 * b237 - 4 b69 * b377 - 4 b69 * b462 + 4 b70 * b339 - 4 b70 * b607 - 4 b70 * b680 + 4 b70 * b817 
  - 4 b71 * b347 - 4 b71 * b468 + 4 b71 * b492 - 4 b72 * b425 + 4 b72 * b492 - 4 b72 * b516 + 4 b72 * b684 
  + 4 b73 * b74 - 4 b73 * b75 + 4 b73 * b85 - 4 b74 * b151 - 4 b74 * b494 + 4 b74 * b691 + 4 b75 * b262 
  + 4 b75 * b272 - 4 b75 * b414 + 4 b76 * b77 - 4 b76 * b431 - 4 b76 * b592 + 4 b76 * b624 + 4 b77 * b98 
  - 4 b77 * b345 - 4 b77 * b474 + 4 b78 * b181 - 4 b78 * b520 + 4 b78 * b624 - 4 b78 * b626 + 4 b79 * b80 
  + 4 b79 * b91 - 4 b79 * b572 - 4 b79 * b606 + 4 b80 * b226 - 4 b80 * b369 - 4 b80 * b442 + 4 b81 * b340 
  + 4 b81 * b576 - 4 b81 * b577 - 4 b81 * b639 + 4 b82 * b251 - 4 b82 * b340 - 4 b83 * b447 + 4 b83 * b513 
  - 4 b83 * b549 + 4 b83 * b729 - 4 b84 * b137 + 4 b84 * b306 + 4 b84 * b343 - 4 b84 * b470 - 4 b85 * b343 
  + 4 b85 * b738 - 4 b85 * b785 + 4 b86 * b152 + 4 b86 * b394 - 4 b86 * b697 - 4 b86 * b738 - 4 b87 * b88 
  + 4 b87 * b167 + 4 b87 * b664 - 4 b87 * b666 + 4 b88 * b245 + 4 b88 * b496 + 4 b89 * b90 - 4 b89 * b91 
  + 4 b89 * b92 - 4 b89 * b637 + 4 b90 * b158 - 4 b90 * b810 + 4 b91 * b171 - 4 b92 * b259 + 4 b92 * b537 
  - 4 b92 * b607 + 4 b93 * b341 + 4 b93 * b537 - 4 b93 * b538 - 4 b93 * b608 - 4 b94 * b469 + 4 b94 * b546 
  - 4 b94 * b586 + 4 b94 * b776 + 4 b95 * b176 - 4 b95 * b448 - 4 b95 * b730 + 4 b95 * b776 - 4 b96 * b123 
  + 4 b96 * b312 + 4 b96 * b344 - 4 b96 * b449 - 4 b97 * b344 + 4 b97 * b694 - 4 b97 * b839 + 4 b98 * b138 
  - 4 b98 * b694 + 4 b99 * b155 - 4 b99 * b475 + 4 b99 * b700 - 4 b99 * b702 + 4 b100 * b101 - 4 b100 * b102 
  + 4 b100 * b103 - 4 b100 * b677 + 4 b101 * b145 - 4 b101 * b760 - 4 b101 * b813 + 4 b102 * b605 - 4 b103 * b574 
  - 4 b103 * b577 + 4 b104 * b342 - 4 b104 * b507 - 4 b104 * b578 + 4 b105 * b333 + 4 b105 * b391 - 4 b105 * b725 
  - 4 b105 * b727 - 4 b106 * b493 + 4 b106 * b584 - 4 b106 * b614 + 4 b106 * b830 + 4 b107 * b163 - 4 b107 * b550 
  - 4 b107 * b729 + 4 b107 * b830 + 4 b108 * b588 + 4 b108 * b618 - 4 b108 * b782 + 4 b109 * b125 - 4 b109 * b658 
  + 4 b109 * b842 + 4 b110 * b142 - 4 b110 * b452 + 4 b110 * b743 - 4 b110 * b745 + 4 b111 * b112 - 4 b111 * b563 
  + 4 b111 * b709 - 4 b111 * b751 + 4 b112 * b289 - 4 b112 * b479 - 4 b112 * b630 + 4 b113 * b114 - 4 b113 * b115 
  + 4 b113 * b116 - 4 b113 * b721 + 4 b114 * b131 - 4 b114 * b719 - 4 b114 * b762 - 4 b115 * b408 + 4 b115 * b635 
  - 4 b116 * b277 - 4 b116 * b538 + 4 b117 * b118 - 4 b117 * b488 - 4 b117 * b540 - 4 b118 * b217 - 4 b118 * b539 
  + 4 b119 * b120 - 4 b119 * b412 + 4 b119 * b828 + 4 b120 * b331 - 4 b120 * b681 - 4 b120 * b683 + 4 b121 * b122 
  + 4 b121 * b150 - 4 b121 * b587 - 4 b121 * b684 + 4 b122 * b212 - 4 b122 * b426 - 4 b122 * b829 - 4 b123 * b124 
  + 4 b123 * b616 + 4 b123 * b652 - 4 b124 * b176 + 4 b124 * b299 + 4 b124 * b835 - 4 b125 * b292 - 4 b125 * b620 
  - 4 b126 * b592 + 4 b126 * b657 - 4 b127 * b431 + 4 b127 * b790 + 4 b127 * b792 - 4 b127 * b793 + 4 b128 * b168 
  - 4 b128 * b628 + 4 b128 * b792 + 4 b129 * b130 - 4 b129 * b526 + 4 b129 * b672 - 4 b129 * b803 + 4 b130 * b284 
  - 4 b130 * b457 - 4 b130 * b599 - 4 b131 * b291 + 4 b131 * b330 - 4 b131 * b675 - 4 b132 * b390 + 4 b132 * b676 
  - 4 b132 * b762 + 4 b133 * b464 - 4 b133 * b509 - 4 b133 * b579 + 4 b134 * b174 - 4 b134 * b425 + 4 b134 * b644 
  + 4 b135 * b356 - 4 b135 * b413 + 4 b135 * b514 - 4 b135 * b775 - 4 b136 * b253 - 4 b136 * b356 + 4 b136 * b648 
  - 4 b137 * b551 + 4 b137 * b650 + 4 b137 * b690 - 4 b138 * b300 - 4 b138 * b590 - 4 b139 * b556 + 4 b139 * b693 
  - 4 b140 * b453 + 4 b140 * b845 + 4 b140 * b847 - 4 b140 * b848 - 4 b141 * b142 + 4 b141 * b156 - 4 b141 * b434 
  + 4 b141 * b847 - 4 b142 * b263 + 4 b142 * b283 + 4 b143 * b144 - 4 b143 * b564 + 4 b143 * b632 - 4 b143 * b858 
  + 4 b144 * b275 - 4 b144 * b436 - 4 b144 * b562 - 4 b145 * b194 - 4 b145 * b296 + 4 b145 * b325 - 4 b146 * b378 
  + 4 b146 * b718 - 4 b146 * b813 + 4 b147 * b160 - 4 b147 * b447 + 4 b147 * b612 + 4 b148 * b358 - 4 b148 * b392 
  + 4 b148 * b547 - 4 b148 * b728 - 4 b149 * b242 + 4 b149 * b270 - 4 b149 * b358 - 4 b150 * b358 - 4 b150 * b616 
  + 4 b150 * b687 + 4 b151 * b177 - 4 b151 * b589 + 4 b151 * b687 + 4 b152 * b552 - 4 b152 * b553 - 4 b152 * b555 
  - 4 b153 * b519 - 4 b153 * b697 + 4 b153 * b737 - 4 b154 * b314 + 4 b154 * b430 + 4 b154 * b697 - 4 b154 * b698 
  - 4 b155 * b255 - 4 b155 * b352 + 4 b155 * b849 - 4 b156 * b352 + 4 b156 * b383 - 4 b156 * b398 + 4 b157 * b265 
  - 4 b157 * b417 - 4 b157 * b524 + 4 b157 * b601 - 4 b158 * b184 - 4 b158 * b302 + 4 b158 * b319 - 4 b159 * b250 
  + 4 b159 * b278 + 4 b159 * b350 - 4 b159 * b722 + 4 b160 * b197 - 4 b160 * b467 - 4 b160 * b728 - 4 b161 * b197 
  + 4 b161 * b360 - 4 b161 * b380 + 4 b161 * b585 - 4 b162 * b232 + 4 b162 * b310 - 4 b162 * b360 - 4 b163 * b360 
  - 4 b163 * b588 + 4 b163 * b733 - 4 b164 * b313 + 4 b164 * b782 - 4 b164 * b783 - 4 b165 * b323 + 4 b165 * b661 
  - 4 b165 * b662 + 4 b165 * b845 + 4 b166 * b354 - 4 b166 * b433 + 4 b166 * b496 - 4 b166 * b846 - 4 b167 * b354 
  - 4 b167 * b496 + 4 b167 * b794 - 4 b168 * b354 + 4 b168 * b374 - 4 b168 * b416 + 4 b169 * b256 - 4 b169 * b399 
  - 4 b169 * b499 + 4 b169 * b565 - 4 b170 * b758 - 4 b171 * b572 - 4 b171 * b573 + 4 b172 * b215 + 4 b172 * b809 
  - 4 b173 * b346 + 4 b173 * b542 - 4 b173 * b611 + 4 b173 * b822 + 4 b174 * b187 - 4 b174 * b491 - 4 b174 * b775 
  - 4 b175 * b187 + 4 b175 * b365 - 4 b175 * b371 + 4 b175 * b613 - 4 b176 * b365 + 4 b176 * b779 + 4 b177 * b178 
  - 4 b177 * b381 - 4 b177 * b836 - 4 b178 * b322 - 4 b178 * b736 - 4 b179 * b622 + 4 b179 * b787 + 4 b179 * b838 
  + 4 b180 * b357 - 4 b180 * b415 + 4 b180 * b521 - 4 b180 * b791 - 4 b181 * b357 - 4 b181 * b521 + 4 b181 * b746 
  + 4 b182 * b246 - 4 b182 * b384 - 4 b182 * b479 + 4 b182 * b527 + 4 b183 * b210 - 4 b183 * b363 + 4 b183 * b482 
  - 4 b183 * b502 + 4 b184 * b185 - 4 b184 * b364 + 4 b184 * b605 - 4 b185 * b717 + 4 b186 * b226 + 4 b186 * b228 
  + 4 b187 * b326 - 4 b187 * b647 - 4 b188 * b327 + 4 b188 * b690 - 4 b188 * b692 + 4 b189 * b221 - 4 b189 * b592 
  + 4 b189 * b740 + 4 b190 * b359 - 4 b190 * b397 + 4 b190 * b559 - 4 b190 * b744 + 4 b191 * b315 - 4 b191 * b359 
  - 4 b191 * b559 - 4 b192 * b200 - 4 b192 * b457 + 4 b192 * b500 + 4 b192 * b856 + 4 b193 * b206 - 4 b193 * b368 
  + 4 b193 * b459 - 4 b193 * b531 + 4 b194 * b195 - 4 b194 * b369 + 4 b194 * b635 - 4 b195 * b675 + 4 b196 * b237 
  + 4 b196 * b238 - 4 b196 * b408 - 4 b197 * b320 + 4 b197 * b332 + 4 b198 * b414 - 4 b198 * b517 + 4 b198 * b587 
  - 4 b198 * b777 + 4 b199 * b361 - 4 b199 * b382 + 4 b199 * b595 - 4 b199 * b701 + 4 b200 * b201 + 4 b200 * b202 
  - 4 b200 * b362 - 4 b201 * b399 + 4 b201 * b477 - 4 b201 * b522 - 4 b202 * b400 - 4 b202 * b436 + 4 b202 * b480 
  + 4 b203 * b428 - 4 b203 * b494 + 4 b203 * b615 - 4 b203 * b731 + 4 b204 * b366 - 4 b204 * b373 + 4 b204 * b625 
  - 4 b204 * b665 + 4 b205 * b384 - 4 b205 * b417 - 4 b206 * b386 + 4 b207 * b333 + 4 b207 * b610 - 4 b207 * b724 
  - 4 b207 * b821 + 4 b208 * b449 - 4 b208 * b470 + 4 b208 * b649 - 4 b208 * b686 - 4 b209 * b288 + 4 b209 * b293 
  + 4 b209 * b624 - 4 b209 * b843 - 4 b210 * b404 + 4 b211 * b331 + 4 b211 * b642 - 4 b211 * b680 - 4 b211 * b768 
  + 4 b212 * b492 - 4 b212 * b493 - 4 b212 * b515 + 4 b213 * b288 - 4 b213 * b476 + 4 b213 * b594 - 4 b213 * b787 
  + 4 b214 * b215 + 4 b214 * b217 - 4 b214 * b409 - 4 b214 * b487 - 4 b215 * b761 - 4 b215 * b764 + 4 b216 * b217 
  - 4 b216 * b538 + 4 b216 * b639 - 4 b216 * b724 - 4 b217 * b763 - 4 b218 * b260 + 4 b218 * b320 + 4 b218 * b468 
  - 4 b218 * b612 + 4 b219 * b468 - 4 b219 * b469 - 4 b219 * b548 + 4 b219 * b830 - 4 b220 * b326 + 4 b220 * b731 
  + 4 b220 * b830 - 4 b220 * b832 + 4 b221 * b620 - 4 b221 * b659 - 4 b221 * b692 + 4 b222 * b282 - 4 b222 * b453 
  + 4 b222 * b558 - 4 b222 * b740 - 4 b223 * b224 + 4 b223 * b225 - 4 b223 * b385 + 4 b223 * b401 + 4 b224 * b265 
  - 4 b224 * b458 - 4 b225 * b402 + 4 b225 * b440 - 4 b225 * b460 - 4 b226 * b407 - 4 b226 * b606 + 4 b227 * b228 
  + 4 b227 * b230 - 4 b227 * b507 - 4 b227 * b814 - 4 b228 * b720 - 4 b228 * b721 + 4 b229 * b230 - 4 b229 * b577 
  + 4 b229 * b608 - 4 b229 * b768 - 4 b230 * b286 - 4 b230 * b464 - 4 b231 * b252 + 4 b231 * b309 + 4 b231 * b446 
  - 4 b231 * b583 + 4 b232 * b446 - 4 b232 * b447 + 4 b232 * b776 - 4 b233 * b332 + 4 b233 * b776 + 4 b233 * b777 
  - 4 b233 * b778 - 4 b234 * b431 + 4 b234 * b520 + 4 b234 * b557 - 4 b234 * b698 + 4 b235 * b246 + 4 b235 * b402 
  - 4 b235 * b418 - 4 b235 * b856 + 4 b236 * b275 - 4 b236 * b402 + 4 b236 * b437 - 4 b236 * b481 - 4 b237 * b389 
  - 4 b237 * b636 - 4 b238 * b291 + 4 b238 * b536 - 4 b238 * b677 + 4 b239 * b240 + 4 b239 * b578 - 4 b239 * b607 
  - 4 b239 * b821 - 4 b240 * b276 - 4 b240 * b444 + 4 b240 * b536 + 4 b241 * b445 - 4 b241 * b544 + 4 b241 * b580 
  - 4 b241 * b772 + 4 b242 * b424 - 4 b242 * b425 + 4 b242 * b729 + 4 b243 * b729 - 4 b243 * b730 - 4 b243 * b732 
  + 4 b243 * b831 - 4 b244 * b307 + 4 b244 * b471 + 4 b244 * b833 - 4 b244 * b834 - 4 b245 * b452 + 4 b245 * b593 
  - 4 b245 * b662 - 4 b246 * b801 - 4 b246 * b803 + 4 b247 * b284 - 4 b247 * b418 - 4 b247 * b501 - 4 b248 * b296 
  + 4 b248 * b575 + 4 b248 * b636 - 4 b248 * b637 + 4 b249 * b250 + 4 b249 * b539 - 4 b249 * b638 - 4 b249 * b769 
  - 4 b250 * b267 + 4 b250 * b575 - 4 b251 * b252 + 4 b251 * b541 - 4 b251 * b825 + 4 b252 * b725 + 4 b252 * b826 
  - 4 b253 * b412 + 4 b253 * b684 - 4 b254 * b313 + 4 b254 * b779 - 4 b254 * b780 + 4 b255 * b396 + 4 b255 * b475 
  - 4 b255 * b476 + 4 b256 * b401 - 4 b256 * b750 - 4 b256 * b751 + 4 b257 * b289 - 4 b257 * b438 + 4 b257 * b480 
  - 4 b257 * b530 + 4 b258 * b259 + 4 b258 * b408 - 4 b258 * b409 - 4 b258 * b607 - 4 b259 * b302 + 4 b259 * b606 
  + 4 b260 * b261 - 4 b260 * b411 + 4 b260 * b681 + 4 b261 * b412 - 4 b261 * b493 - 4 b261 * b771 - 4 b262 * b322 
  + 4 b262 * b733 - 4 b262 * b734 + 4 b263 * b452 - 4 b263 * b453 + 4 b263 * b847 + 4 b264 * b747 + 4 b264 * b847 
  - 4 b264 * b848 - 4 b264 * b851 - 4 b265 * b708 - 4 b265 * b709 + 4 b266 * b294 - 4 b266 * b458 + 4 b266 * b500 
  - 4 b266 * b567 + 4 b267 * b574 - 4 b267 * b638 + 4 b268 * b269 + 4 b268 * b642 - 4 b268 * b646 + 4 b269 * b425 
  - 4 b269 * b469 - 4 b269 * b726 - 4 b270 * b311 + 4 b270 * b427 - 4 b270 * b614 - 4 b271 * b327 + 4 b271 * b429 
  + 4 b271 * b687 - 4 b271 * b688 + 4 b272 * b273 - 4 b272 * b429 - 4 b272 * b553 - 4 b273 * b591 - 4 b273 * b691 
  + 4 b273 * b737 + 4 b274 * b792 - 4 b274 * b793 + 4 b274 * b795 - 4 b274 * b796 - 4 b275 * b671 - 4 b275 * b672 
  + 4 b276 * b277 - 4 b276 * b678 + 4 b277 * b302 - 4 b277 * b761 + 4 b278 * b279 - 4 b278 * b444 - 4 b278 * b489 
  - 4 b279 * b466 - 4 b279 * b508 + 4 b280 * b281 - 4 b280 * b450 - 4 b280 * b590 - 4 b281 * b621 - 4 b281 * b653 
  + 4 b281 * b693 + 4 b282 * b300 - 4 b282 * b696 - 4 b282 * b788 - 4 b283 * b745 - 4 b283 * b748 + 4 b283 * b850 
  - 4 b284 * b631 - 4 b284 * b632 + 4 b285 * b319 - 4 b285 * b463 + 4 b286 * b287 - 4 b286 * b722 + 4 b287 * b296 
  - 4 b287 * b720 - 4 b287 * b815 + 4 b288 * b292 - 4 b288 * b660 - 4 b289 * b600 - 4 b289 * b602 + 4 b290 * b325 
  - 4 b290 * b486 + 4 b291 * b487 + 4 b291 * b676 + 4 b292 * b621 - 4 b292 * b623 + 4 b293 * b496 - 4 b293 * b844 
  - 4 b293 * b846 + 4 b294 * b563 - 4 b294 * b564 - 4 b294 * b566 + 4 b295 * b330 - 4 b295 * b506 + 4 b296 * b635 
  + 4 b297 * b514 + 4 b297 * b826 - 4 b297 * b827 - 4 b297 * b829 + 4 b298 * b299 + 4 b298 * b515 - 4 b298 * b516 
  - 4 b298 * b732 - 4 b299 * b685 - 4 b299 * b688 + 4 b300 * b591 - 4 b300 * b593 + 4 b301 * b521 + 4 b301 * b788 
  - 4 b301 * b789 - 4 b301 * b791 + 4 b302 * b605 + 4 b303 * b547 + 4 b303 * b773 - 4 b303 * b774 - 4 b303 * b775 
  + 4 b304 * b305 + 4 b304 * b548 - 4 b304 * b549 - 4 b304 * b778 + 4 b305 * b551 - 4 b305 * b648 - 4 b305 * b651 
  + 4 b306 * b307 - 4 b306 * b553 - 4 b306 * b736 + 4 b307 * b835 - 4 b307 * b836 + 4 b308 * b559 + 4 b308 * b741 
  - 4 b308 * b742 - 4 b308 * b744 + 4 b309 * b585 - 4 b309 * b727 - 4 b309 * b728 + 4 b310 * b311 - 4 b310 * b586 
  - 4 b310 * b832 + 4 b311 * b589 - 4 b311 * b617 + 4 b312 * b313 - 4 b312 * b590 - 4 b312 * b783 + 4 b313 * b781 
  + 4 b314 * b595 + 4 b314 * b699 - 4 b314 * b701 + 4 b315 * b316 - 4 b315 * b596 - 4 b315 * b704 + 4 b316 * b598 
  - 4 b316 * b668 - 4 b316 * b794 + 4 b317 * b318 - 4 b317 * b604 - 4 b318 * b335 + 4 b318 * b860 - 4 b318 * b861 
  - 4 b319 * b807 - 4 b319 * b810 + 4 b320 * b613 - 4 b320 * b683 + 4 b321 * b322 + 4 b321 * b618 - 4 b321 * b620 
  - 4 b321 * b837 + 4 b322 * b735 + 4 b323 * b625 + 4 b323 * b663 - 4 b323 * b665 - 4 b324 * b634 + 4 b324 * b862 
  - 4 b325 * b757 - 4 b325 * b760 + 4 b326 * b648 - 4 b326 * b829 + 4 b327 * b654 + 4 b327 * b689 + 4 b328 * b329 
  - 4 b328 * b674 + 4 b329 * b753 - 4 b329 * b754 - 4 b329 * b756 - 4 b330 * b716 - 4 b330 * b719 - 4 b331 * b823 
  - 4 b331 * b825 + 4 b332 * b685 - 4 b332 * b775 - 4 b333 * b770 - 4 b333 * b772 + 4 b334 * b750 + 4 b334 * b852 
  - 4 b334 * b853 - 4 b334 * b855 + 4 b335 * b862 - 4 b336 * b338 + 4 b336 * b480 - 4 b336 * b528 - 4 b337 * b711 
  + 4 b337 * b857 - 4 b339 * b410 - 4 b339 * b445 - 4 b339 * b679 - 4 b340 * b465 - 4 b340 * b723 - 4 b341 * b445 
  - 4 b341 * b488 - 4 b341 * b767 - 4 b342 * b465 - 4 b342 * b509 - 4 b342 * b820 - 4 b343 * b429 - 4 b343 * b552 
  - 4 b344 * b450 + 4 b345 * b591 - 4 b345 * b661 - 4 b345 * b785 + 4 b346 * b444 - 4 b346 * b540 + 4 b347 * b411 
  - 4 b347 * b491 - 4 b347 * b643 - 4 b348 * b472 + 4 b348 * b618 - 4 b348 * b655 + 4 b349 * b621 - 4 b349 * b622 
  - 4 b349 * b839 - 4 b349 * b842 - 4 b350 * b579 - 4 b350 * b640 - 4 b351 * b495 + 4 b351 * b652 + 4 b352 * b396 
  - 4 b352 * b455 - 4 b353 * b518 + 4 b353 * b690 - 4 b354 * b477 - 4 b355 * b375 - 4 b355 * b714 - 4 b356 * b448 
  - 4 b356 * b615 - 4 b357 * b434 - 4 b357 * b497 - 4 b358 * b649 - 4 b359 * b455 - 4 b359 * b522 - 4 b360 * b686 
  - 4 b361 * b477 - 4 b361 * b560 - 4 b361 * b596 - 4 b362 * b417 + 4 b362 * b455 - 4 b362 * b560 - 4 b363 * b420 
  - 4 b364 * b808 - 4 b365 * b548 - 4 b365 * b731 - 4 b366 * b497 - 4 b366 * b597 - 4 b366 * b626 - 4 b367 * b384 
  + 4 b367 * b434 - 4 b367 * b436 - 4 b367 * b597 - 4 b368 * b440 - 4 b370 * b446 + 4 b370 * b513 + 4 b370 * b825 
  - 4 b371 * b515 - 4 b371 * b550 - 4 b371 * b777 - 4 b372 * b617 + 4 b372 * b733 - 4 b372 * b782 - 4 b373 * b522 
  - 4 b373 * b627 - 4 b373 * b666 - 4 b374 * b399 - 4 b374 * b457 - 4 b374 * b627 - 4 b375 * b376 + 4 b375 * b439 
  - 4 b375 * b568 - 4 b376 * b460 - 4 b377 * b675 + 4 b378 * b536 - 4 b378 * b606 - 4 b379 * b424 + 4 b379 * b546 
  + 4 b379 * b772 - 4 b380 * b516 - 4 b380 * b587 - 4 b380 * b831 - 4 b381 * b471 - 4 b381 * b651 + 4 b381 * b779 
  - 4 b382 * b560 - 4 b382 * b667 - 4 b382 * b702 - 4 b383 * b417 - 4 b383 * b479 - 4 b383 * b667 - 4 b384 * b797 
  - 4 b385 * b418 + 4 b385 * b420 - 4 b385 * b483 - 4 b386 * b387 + 4 b386 * b419 - 4 b386 * b860 - 4 b387 * b483 
  - 4 b388 * b389 - 4 b388 * b717 - 4 b389 * b485 + 4 b390 * b575 - 4 b390 * b636 + 4 b391 * b584 - 4 b392 * b549 
  - 4 b392 * b615 - 4 b393 * b688 - 4 b393 * b690 + 4 b393 * b833 - 4 b394 * b395 - 4 b394 * b451 - 4 b394 * b555 
  - 4 b395 * b430 - 4 b395 * b475 + 4 b395 * b623 - 4 b396 * b454 - 4 b397 * b597 - 4 b397 * b703 - 4 b397 * b745 
  - 4 b398 * b436 - 4 b398 * b499 - 4 b398 * b703 - 4 b399 * b525 + 4 b400 * b401 - 4 b401 * b438 - 4 b402 * b403 
  + 4 b403 * b404 - 4 b403 * b438 - 4 b403 * b503 - 4 b404 * b405 - 4 b404 * b805 - 4 b405 * b503 - 4 b406 * b407 
  - 4 b406 * b758 - 4 b407 * b505 - 4 b409 * b819 + 4 b410 * b411 - 4 b410 * b511 + 4 b411 * b510 - 4 b413 * b586 
  - 4 b413 * b649 - 4 b414 * b652 - 4 b414 * b734 - 4 b415 * b627 - 4 b415 * b747 - 4 b415 * b793 - 4 b416 * b457 
  - 4 b416 * b524 - 4 b416 * b747 - 4 b418 * b419 - 4 b419 * b458 - 4 b419 * b532 - 4 b420 * b421 - 4 b420 * b753 
  - 4 b421 * b532 - 4 b422 * b423 - 4 b422 * b808 - 4 b423 * b534 - 4 b423 * b809 + 4 b424 * b773 - 4 b426 * b427 
  - 4 b426 * b614 - 4 b426 * b686 - 4 b427 * b687 - 4 b428 * b429 - 4 b428 * b618 - 4 b428 * b780 - 4 b430 * b432 
  - 4 b431 * b432 - 4 b432 * b792 - 4 b433 * b667 - 4 b433 * b795 - 4 b433 * b848 - 4 b434 * b435 - 4 b435 * b479 
  - 4 b435 * b562 - 4 b435 * b795 - 4 b437 * b525 - 4 b437 * b802 - 4 b437 * b855 - 4 b438 * b439 - 4 b439 * b481 
  - 4 b439 * b569 - 4 b440 * b441 - 4 b440 * b712 - 4 b441 * b569 - 4 b442 * b443 - 4 b443 * b571 - 4 b443 * b759 
  - 4 b444 * b766 - 4 b447 * b645 + 4 b448 * b650 - 4 b449 * b450 - 4 b449 * b834 + 4 b450 * b689 - 4 b451 * b453 
  - 4 b451 * b556 + 4 b451 * b664 - 4 b454 * b703 - 4 b454 * b850 - 4 b455 * b456 - 4 b456 * b499 - 4 b456 * b599 
  - 4 b456 * b850 - 4 b458 * b459 - 4 b459 * b501 - 4 b459 * b604 - 4 b460 * b461 - 4 b460 * b754 - 4 b461 * b604 
  - 4 b462 * b463 - 4 b463 * b718 - 4 b464 * b508 - 4 b464 * b818 - 4 b465 * b466 + 4 b465 * b725 - 4 b466 * b726 
  - 4 b467 * b469 + 4 b467 * b583 - 4 b470 * b472 + 4 b471 * b619 - 4 b472 * b619 + 4 b472 * b735 - 4 b473 * b554 
  - 4 b473 * b619 - 4 b473 * b657 - 4 b474 * b476 - 4 b474 * b519 + 4 b474 * b700 - 4 b477 * b478 - 4 b478 * b524 
  - 4 b478 * b630 + 4 b478 * b851 - 4 b480 * b750 - 4 b481 * b482 - 4 b481 * b529 - 4 b482 * b530 - 4 b482 * b634 
  - 4 b483 * b484 - 4 b483 * b806 - 4 b484 * b634 - 4 b485 * b486 - 4 b486 * b676 - 4 b487 * b573 - 4 b487 * b763 
  - 4 b488 * b490 + 4 b488 * b681 - 4 b489 * b490 - 4 b489 * b539 - 4 b490 * b771 - 4 b491 * b493 + 4 b491 * b545 
  + 4 b492 * b646 - 4 b494 * b495 - 4 b495 * b653 + 4 b495 * b781 - 4 b497 * b498 - 4 b497 * b797 - 4 b498 * b562 
  - 4 b498 * b669 + 4 b498 * b796 - 4 b499 * b563 - 4 b500 * b708 + 4 b500 * b857 - 4 b501 * b502 - 4 b501 * b566 
  - 4 b502 * b567 - 4 b502 * b674 - 4 b503 * b504 - 4 b503 * b861 - 4 b504 * b674 - 4 b505 * b506 - 4 b506 * b635 
  - 4 b507 * b815 - 4 b508 * b510 + 4 b508 * b819 - 4 b509 * b512 + 4 b509 * b642 - 4 b510 * b512 - 4 b510 * b578 
  - 4 b511 * b544 - 4 b511 * b640 + 4 b511 * b824 - 4 b512 * b824 + 4 b513 * b514 + 4 b513 * b683 - 4 b514 * b516 
  - 4 b517 * b518 - 4 b518 * b691 + 4 b518 * b835 - 4 b519 * b659 + 4 b519 * b788 + 4 b520 * b521 - 4 b522 * b523 
  - 4 b523 * b599 - 4 b523 * b706 + 4 b523 * b748 - 4 b524 * b526 - 4 b525 * b528 - 4 b525 * b800 - 4 b526 * b528 
  - 4 b526 * b706 + 4 b527 * b529 - 4 b527 * b671 + 4 b527 * b802 - 4 b528 * b529 - 4 b529 * b603 - 4 b530 * b531 
  - 4 b530 * b602 - 4 b531 * b603 - 4 b531 * b713 - 4 b532 * b533 - 4 b533 * b713 - 4 b534 * b535 - 4 b535 * b605 
  - 4 b535 * b716 - 4 b536 * b538 - 4 b539 * b541 - 4 b540 * b543 + 4 b540 * b610 - 4 b541 * b543 - 4 b541 * b608 
  - 4 b542 * b545 + 4 b542 * b771 + 4 b542 * b823 - 4 b543 * b545 - 4 b544 * b645 + 4 b544 * b773 - 4 b545 * b773 
  + 4 b546 * b547 + 4 b546 * b727 - 4 b547 * b549 - 4 b550 * b551 + 4 b550 * b833 - 4 b551 * b835 + 4 b552 * b836 
  + 4 b553 * b784 - 4 b554 * b555 + 4 b554 * b656 - 4 b554 * b695 - 4 b555 * b557 - 4 b556 * b695 + 4 b556 * b741 
  - 4 b557 * b739 - 4 b557 * b741 + 4 b558 * b559 - 4 b560 * b561 - 4 b561 * b630 + 4 b561 * b704 - 4 b561 * b749 
  - 4 b562 * b564 - 4 b563 * b669 - 4 b564 * b749 + 4 b565 * b566 - 4 b565 * b631 - 4 b566 * b633 - 4 b567 * b568 
  - 4 b567 * b632 - 4 b568 * b633 - 4 b568 * b755 - 4 b569 * b570 - 4 b570 * b755 - 4 b571 * b572 - 4 b572 * b757 
  - 4 b573 * b574 - 4 b574 * b812 - 4 b575 * b577 + 4 b576 * b637 - 4 b578 * b580 + 4 b579 * b581 - 4 b579 * b582 
  - 4 b580 * b582 - 4 b580 * b639 - 4 b581 * b583 + 4 b581 * b726 + 4 b581 * b770 - 4 b582 * b583 + 4 b584 * b585 
  + 4 b584 * b774 - 4 b585 * b586 - 4 b587 * b589 + 4 b588 * b732 + 4 b588 * b781 - 4 b589 * b781 + 4 b590 * b838 
  + 4 b592 * b699 - 4 b593 * b699 - 4 b593 * b786 + 4 b594 * b595 - 4 b595 * b596 - 4 b597 * b598 - 4 b598 * b669 
  - 4 b598 * b799 - 4 b599 * b600 - 4 b600 * b601 - 4 b600 * b799 + 4 b601 * b602 - 4 b602 * b673 - 4 b603 * b672 
  - 4 b603 * b860 - 4 b608 * b609 - 4 b609 * b611 - 4 b609 * b680 + 4 b609 * b725 - 4 b610 * b612 + 4 b610 * b682 
  - 4 b611 * b612 - 4 b613 * b614 + 4 b613 * b828 - 4 b615 * b617 + 4 b616 * b735 + 4 b616 * b778 - 4 b617 * b735 
  - 4 b619 * b620 + 4 b622 * b663 - 4 b623 * b663 - 4 b623 * b841 + 4 b624 * b625 - 4 b625 * b626 - 4 b626 * b746 
  - 4 b627 * b629 - 4 b628 * b629 - 4 b628 * b746 - 4 b628 * b797 - 4 b629 * b706 - 4 b629 * b854 - 4 b630 * b631 
  - 4 b631 * b854 - 4 b632 * b710 - 4 b633 * b709 - 4 b633 * b805 + 4 b634 * b711 - 4 b637 * b638 - 4 b639 * b641 
  - 4 b640 * b643 + 4 b640 * b769 - 4 b641 * b643 + 4 b641 * b681 - 4 b641 * b724 - 4 b642 * b644 - 4 b643 * b644 
  - 4 b644 * b646 - 4 b645 * b647 - 4 b645 * b682 - 4 b646 * b647 - 4 b649 * b651 + 4 b650 * b689 + 4 b650 * b832 
  - 4 b651 * b689 + 4 b652 * b654 - 4 b653 * b656 - 4 b654 * b656 + 4 b655 * b658 - 4 b656 * b658 + 4 b657 * b660 
  - 4 b658 * b660 + 4 b659 * b662 - 4 b660 * b662 - 4 b661 * b840 + 4 b663 * b790 + 4 b664 * b665 + 4 b664 * b788 
  - 4 b665 * b666 - 4 b666 * b794 - 4 b667 * b668 - 4 b668 * b670 - 4 b668 * b749 - 4 b669 * b671 - 4 b670 * b671 
  - 4 b670 * b798 - 4 b672 * b752 - 4 b673 * b751 - 4 b673 * b753 - 4 b673 * b860 + 4 b675 * b676 - 4 b677 * b678 
  + 4 b677 * b817 - 4 b678 * b679 - 4 b678 * b819 - 4 b679 * b768 - 4 b682 * b683 + 4 b684 * b685 - 4 b686 * b688 
  - 4 b691 * b692 - 4 b692 * b694 + 4 b693 * b696 - 4 b694 * b696 + 4 b695 * b698 - 4 b696 * b698 + 4 b699 * b743 
  + 4 b700 * b701 + 4 b700 * b741 - 4 b701 * b702 - 4 b702 * b849 - 4 b703 * b705 - 4 b704 * b705 - 4 b704 * b849 
  - 4 b705 * b707 - 4 b705 * b799 - 4 b706 * b708 - 4 b707 * b708 - 4 b707 * b853 - 4 b709 * b804 - 4 b710 * b712 
  - 4 b710 * b803 - 4 b710 * b805 - 4 b711 * b714 - 4 b712 * b714 - 4 b712 * b804 - 4 b713 * b715 - 4 b714 * b715 
  + 4 b717 * b718 - 4 b717 * b719 + 4 b718 * b720 - 4 b719 * b720 - 4 b721 * b722 + 4 b721 * b765 - 4 b722 * b723 
  - 4 b723 * b821 - 4 b726 * b727 - 4 b728 * b730 - 4 b731 * b734 - 4 b732 * b734 - 4 b736 * b738 - 4 b736 * b838 
  + 4 b737 * b739 - 4 b737 * b837 - 4 b738 * b739 - 4 b739 * b740 - 4 b740 * b742 - 4 b742 * b845 + 4 b743 * b744 
  - 4 b743 * b844 - 4 b744 * b745 - 4 b746 * b748 - 4 b747 * b852 - 4 b748 * b852 - 4 b749 * b750 - 4 b751 * b859 
  - 4 b752 * b753 - 4 b752 * b754 - 4 b752 * b858 - 4 b754 * b859 - 4 b755 * b756 + 4 b758 * b759 - 4 b758 * b760 
  + 4 b759 * b761 + 4 b759 * b811 - 4 b760 * b761 - 4 b762 * b764 + 4 b762 * b815 - 4 b763 * b766 + 4 b763 * b813 
  - 4 b764 * b766 - 4 b765 * b767 - 4 b766 * b767 - 4 b767 * b769 - 4 b768 * b770 - 4 b769 * b770 - 4 b771 * b774 
  - 4 b772 * b774 - 4 b777 * b780 - 4 b778 * b780 - 4 b783 * b784 - 4 b783 * b785 + 4 b784 * b786 + 4 b784 * b840 
  - 4 b785 * b786 - 4 b786 * b787 - 4 b787 * b789 - 4 b789 * b790 + 4 b790 * b791 - 4 b791 * b793 - 4 b794 * b796 
  - 4 b795 * b798 - 4 b796 * b798 - 4 b797 * b800 - 4 b798 * b800 - 4 b799 * b801 - 4 b800 * b801 - 4 b804 * b806 
  + 4 b805 * b862 - 4 b806 * b862 + 4 b808 * b809 - 4 b808 * b810 + 4 b809 * b812 - 4 b810 * b812 + 4 b811 * b814 
  - 4 b812 * b814 - 4 b813 * b816 - 4 b814 * b816 - 4 b815 * b818 - 4 b816 * b818 - 4 b817 * b820 - 4 b818 * b820 
  - 4 b819 * b822 - 4 b820 * b822 - 4 b821 * b823 - 4 b822 * b823 - 4 b824 * b826 - 4 b824 * b827 - 4 b825 * b827 
  + 4 b827 * b828 - 4 b828 * b829 - 4 b831 * b833 - 4 b831 * b834 - 4 b832 * b834 - 4 b836 * b837 - 4 b837 * b839 
  + 4 b838 * b841 - 4 b839 * b841 + 4 b840 * b843 - 4 b841 * b843 + 4 b842 * b844 - 4 b843 * b844 + 4 b845 * b846 
  - 4 b846 * b848 - 4 b849 * b851 - 4 b850 * b853 - 4 b851 * b853 - 4 b852 * b854 - 4 b854 * b855 - 4 b855 * b856 
  - 4 b856 * b858 - 4 b859 * b861 ]/2

Subject To

Binary
 b2 b3 b4 b5 b6 b7 b8 b9 b10 b11 b12 b13 b14 b15 b16 b17 b18 b19 b20 b21 b22 b23 b24 b25 b26
 b27 b28 b29 b30 b31 b32 b33 b34 b35 b36 b37 b38 b39 b40 b41 b42 b43 b44 b45 b46 b47 b48 b49
 b50 b51 b52 b53 b54 b55 b56 b57 b58 b59 b60 b61 b62 b63 b64 b65 b66 b67 b68 b69 b70 b71 b72
 b73 b74 b75 b76 b77 b78 b79 b80 b81 b82 b83 b84 b85 b86 b87 b88 b89 b90 b91 b92 b93 b94 b95
 b96 b97 b98 b99 b100 b101 b102 b103 b104 b105 b106 b107 b108 b109 b110 b111 b112 b113 b114
 b115 b116 b117 b118 b119 b120 b121 b122 b123 b124 b125 b126 b127 b128 b129 b130 b131 b132 b133
 b134 b135 b136 b137 b138 b139 b140 b141 b142 b143 b144 b145 b146 b147 b148 b149 b150 b151 b152
 b153 b154 b155 b156 b157 b158 b159 b160 b161 b162 b163 b164 b165 b166 b167 b168 b169 b170 b171
 b172 b173 b174 b175 b176 b177 b178 b179 b180 b181 b182 b183 b184 b185 b186 b187 b188 b189 b190
 b191 b192 b193 b194 b195 b196 b197 b198 b199 b200 b201 b202 b203 b204 b205 b206 b207 b208 b209
 b210 b211 b212 b213 b214 b215 b216 b217 b218 b219 b220 b221 b222 b223 b224 b225 b226 b227 b228
 b229 b230 b231 b232 b233 b234 b235 b236 b237 b238 b239 b240 b241 b242 b243 b244 b245 b246 b247
 b248 b249 b250 b251 b252 b253 b254 b255 b256 b257 b258 b259 b260 b261 b262 b263 b264 b265 b266
 b267 b268 b269 b270 b271 b272 b273 b274 b275 b276 b277 b278 b279 b280 b281 b282 b283 b284 b285
 b286 b287 b288 b289 b290 b291 b292 b293 b294 b295 b296 b297 b298 b299 b300 b301 b302 b303 b304
 b305 b306 b307 b308 b309 b310 b311 b312 b313 b314 b315 b316 b317 b318 b319 b320 b321 b322 b323
 b324 b325 b326 b327 b328 b329 b330 b331 b332 b333 b334 b335 b336 b337 b338 b339 b340 b341 b342
 b343 b344 b345 b346 b347 b348 b349 b350 b351 b352 b353 b354 b355 b356 b357 b358 b359 b360 b361
 b362 b363 b364 b365 b366 b367 b368 b369 b370 b371 b372 b373 b374 b375 b376 b377 b378 b379 b380
 b381 b382 b383 b384 b385 b386 b387 b388 b389 b390 b391 b392 b393 b394 b395 b396 b397 b398 b399
 b400 b401 b402 b403 b404 b405 b406 b407 b408 b409 b410 b411 b412 b413 b414 b415 b416 b417 b418
 b419 b420 b421 b422 b423 b424 b425 b426 b427 b428 b429 b430 b431 b432 b433 b434 b435 b436 b437
 b438 b439 b440 b441 b442 b443 b444 b445 b446 b447 b448 b449 b450 b451 b452 b453 b454 b455 b456
 b457 b458 b459 b460 b461 b462 b463 b464 b465 b466 b467 b468 b469 b470 b471 b472 b473 b474 b475
 b476 b477 b478 b479 b480 b481 b482 b483 b484 b485 b486 b487 b488 b489 b490 b491 b492 b493 b494
 b495 b496 b497 b498 b499 b500 b501 b502 b503 b504 b505 b506 b507 b508 b509 b510 b511 b512 b513
 b514 b515 b516 b517 b518 b519 b520 b521 b522 b523 b524 b525 b526 b527 b528 b529 b530 b531 b532
 b533 b534 b535 b536 b537 b538 b539 b540 b541 b542 b543 b544 b545 b546 b547 b548 b549 b550 b551
 b552 b553 b554 b555 b556 b557 b558 b559 b560 b561 b562 b563 b564 b565 b566 b567 b568 b569 b570
 b571 b572 b573 b574 b575 b576 b577 b578 b579 b580 b581 b582 b583 b584 b585 b586 b587 b588 b589
 b590 b591 b592 b593 b594 b595 b596 b597 b598 b599 b600 b601 b602 b603 b604 b605 b606 b607 b608
 b609 b610 b611 b612 b613 b614 b615 b616 b617 b618 b619 b620 b621 b622 b623 b624 b625 b626 b627
 b628 b629 b630 b631 b632 b633 b634 b635 b636 b637 b638 b639 b640 b641 b642 b643 b644 b645 b646
 b647 b648 b649 b650 b651 b652 b653 b654 b655 b656 b657 b658 b659 b660 b661 b662 b663 b664 b665
 b666 b667 b668 b669 b670 b671 b672 b673 b674 b675 b676 b677 b678 b679 b680 b681 b682 b683 b684
 b685 b686 b687 b688 b689 b690 b691 b692 b693 b694 b695 b696 b697 b698 b699 b700 b701 b702 b703
 b704 b705 b706 b707 b708 b709 b710 b711 b712 b713 b714 b715 b716 b717 b718 b719 b720 b721 b722
 b723 b724 b725 b726 b727 b728 b729 b730 b731 b732 b733 b734 b735 b736 b737 b738 b739 b740 b741
 b742 b743 b744 b745 b746 b747 b748 b749 b750 b751 b752 b753 b754 b755 b756 b757 b758 b759 b760
 b761 b762 b763 b764 b765 b766 b767 b768 b769 b770 b771 b772 b773 b774 b775 b776 b777 b778 b779
 b780 b781 b782 b783 b784 b785 b786 b787 b788 b789 b790 b791 b792 b793 b794 b795 b796 b797 b798
 b799 b800 b801 b802 b803 b804 b805 b806 b807 b808 b809 b810 b811 b812 b813 b814 b815 b816 b817
 b818 b819 b820 b821 b822 b823 b824 b825 b826 b827 b828 b829 b830 b831 b832 b833 b834 b835 b836
 b837 b838 b839 b840 b841 b842 b843 b844 b845 b846 b847 b848 b849 b850 b851 b852 b853 b854 b855
 b856 b857 b858 b859 b860 b861 b862

End
